============================[ Problem Statistics ]=============================|                                                                             ||  Number of variables:          4242                                         ||  Number of clauses:            9962                                         ||  Parse time:                   0.37 s                                       ||                                                                             |============================[ Search Statistics ]==============================| Conflicts |          ORIGINAL         |          LEARNT          | Progress ||           |    Vars  Clauses Literals |    Limit  Clauses Lit/Cl |          |===============================================================================|       100 |    1591     6167   559098 |     2261      100     53 | 62.501 % |===============================================================================restarts              : 3conflicts             : 205            (371 /sec)decisions             : 472            (0.00 % random) (854 /sec)propagations          : 11662          (21089 /sec)conflict literals     : 14557          (95.13 % deleted)CPU time              : 0.553 sSATISFIABLE